% Generado automaticamente desde C:/Users/andres/Desktop/SEPTIMO SEMESTRE/ADAII/proyecto_final/Proyecto-Optimizacion-ADA2/BateriaPruebas_2025_2_P2/Prueba2.txt

n = 10;
m = 3;
ct = 25.0;
maxMovs = 5.0;
v = [0.111, 0.499, 0.908];
p = [4, 4, 2];
s = [| 2, 1, 1 | 2, 2, 0 | 1, 1, 0 |];
